============================[ Problem Statistics ]=============================
|                                                                             |
|  Number of variables:          2663                                         |
|  Number of clauses:            7855                                         |
|  Parse time:                   0.01 s                                       |
|  Eliminated clauses:           0.01 Mb                                      |
|  Simplification time:          0.01 s                                       |
|                                                                             |
============================[ Search Statistics ]==============================
| Conflicts |          ORIGINAL         |          LEARNT          | Progress |
|           |    Vars  Clauses Literals |    Limit  Clauses Lit/Cl |          |
===============================================================================
|       100 |     294     1319     4400 |      483      100      9 | 78.971 % |
|       250 |     294     1319     4400 |      531      250     18 | 78.971 % |
|       475 |     294     1319     4400 |      585      475     16 | 78.971 % |
|       812 |     294     1319     4400 |      643      812     17 | 78.971 % |
|      1318 |     294     1319     4400 |      708     1318     17 | 78.971 % |
|      2077 |     294     1319     4400 |      778     2077     16 | 78.971 % |
|      3216 |     284     1245     4124 |      856      660      7 | 79.347 % |
===============================================================================
restarts              : 22
conflicts             : 4237           (88082 /sec)
decisions             : 9733           (0.00 % random) (202337 /sec)
propagations          : 112377         (2336174 /sec)
conflict literals     : 55385          (23.78 % deleted)
Memory used           : 2.10 MB
CPU time              : 0.048103 s

UNSATISFIABLE
